data;


param d:= 100;
param r:=5;
param p:=0.720000;
param M:=1000;
param U:=
         1         1        2.308124e-01
         2         1        3.140771e-01
         3         1        6.992964e-01
         4         1       -5.105332e-01
         5         1        1.118353e+00
         6         1        9.735825e-01
         7         1        5.802278e-01
         8         1        2.617174e-01
         9         1        5.433899e-01
        10         1        1.695674e+00
        11         1        4.691484e-01
        12         1       -3.545809e-01
        13         1       -2.831392e-01
        14         1        1.751261e+00
        15         1       -7.728520e-01
        16         1        3.716110e-01
        17         1        1.254419e+00
        18         1       -1.746997e+00
        19         1        1.361441e-03
        20         1       -8.914011e-01
        21         1        3.024465e-01
        22         1        2.744315e-02
        23         1        1.807647e+00
        24         1       -7.848773e-01
        25         1        7.473885e-02
        26         1       -1.137552e+00
        27         1        3.725765e-01
        28         1        1.106428e+00
        29         1       -8.760515e-01
        30         1        8.198752e-01
        31         1       -8.642402e-01
        32         1       -1.026943e+00
        33         1       -5.491549e-01
        34         1        7.145612e-01
        35         1       -9.136531e-01
        36         1        1.090207e+00
        37         1        7.557620e-01
        38         1       -1.569771e+00
        39         1       -5.497983e-02
        40         1        1.470880e+00
        41         1       -4.513107e-01
        42         1        6.166285e-02
        43         1        5.949438e-01
        44         1       -1.628071e+00
        45         1       -1.135515e+00
        46         1       -2.064667e-01
        47         1       -5.084798e-01
        48         1       -2.285881e+00
        49         1        7.786193e-01
        50         1        1.029005e+00
        51         1       -1.259922e+00
        52         1       -7.361156e-01
        53         1       -4.799674e-01
        54         1        2.066596e+00
        55         1        7.442398e-01
        56         1        4.928712e-03
        57         1        8.163553e-01
        58         1       -2.433560e+00
        59         1       -4.651953e-01
        60         1        7.377162e-01
        61         1        8.294331e-02
        62         1       -8.388027e-01
        63         1       -8.187075e-01
        64         1       -1.193017e+00
        65         1        1.486936e-01
        66         1       -5.546397e-02
        67         1        5.067451e-01
        68         1        8.375769e-01
        69         1       -3.360470e-01
        70         1        8.337317e-01
        71         1        2.610139e-01
        72         1       -1.588742e+00
        73         1        7.478798e-01
        74         1       -2.509653e-01
        75         1        5.957392e-01
        76         1       -3.616527e-01
        77         1       -1.223576e+00
        78         1       -9.203167e-01
        79         1        4.954003e-01
        80         1       -5.315345e-01
        81         1       -1.437157e+00
        82         1        2.581129e-01
        83         1       -9.721864e-01
        84         1       -1.482073e-01
        85         1        1.852168e-01
        86         1        2.360372e-01
        87         1       -1.021075e+00
        88         1        6.650454e-01
        89         1        8.722893e-02
        90         1       -7.247205e-01
        91         1        4.335787e-01
        92         1        4.660652e-01
        93         1        5.529161e-01
        94         1       -5.924835e-01
        95         1       -3.523968e-01
        96         1       -1.042548e+00
        97         1       -5.245766e-01
        98         1       -4.844784e-01
        99         1        3.601301e-02
       100         1        1.740074e+00
         1         2       -3.008022e-01
         2         2       -2.679946e-01
         3         2        4.781052e-01
         4         2       -5.903611e-02
         5         2        7.827672e-01
         6         2        4.356108e-01
         7         2       -5.541172e-03
         8         2       -2.877708e-01
         9         2       -8.824041e-02
        10         2        6.960877e-01
        11         2        6.979895e-01
        12         2        1.084526e+00
        13         2       -1.066115e+00
        14         2        1.404321e+00
        15         2        7.178058e-02
        16         2       -1.138587e+00
        17         2        8.446364e-01
        18         2        1.204465e-01
        19         2       -1.896389e+00
        20         2        5.558268e-01
        21         2        7.112624e-02
        22         2        7.330508e-01
        23         2        2.574764e+00
        24         2       -1.071976e-01
        25         2       -1.775045e-02
        26         2        5.535287e-01
        27         2       -4.138674e-01
        28         2        7.436076e-01
        29         2       -1.876017e+00
        30         2       -5.349458e-01
        31         2       -2.513123e-01
        32         2       -9.063499e-01
        33         2        4.526541e-01
        34         2       -7.489412e-01
        35         2        6.926780e-01
        36         2       -1.449826e-01
        37         2       -9.044163e-01
        38         2       -5.251776e-01
        39         2       -3.632837e-01
        40         2        8.053799e-01
        41         2       -2.609076e-01
        42         2       -1.111818e+00
        43         2        2.600623e-01
        44         2        5.666204e-02
        45         2       -3.109075e-01
        46         2        4.019750e-01
        47         2        4.631283e-01
        48         2       -7.728380e-01
        49         2        6.894933e-02
        50         2       -1.745508e+00
        51         2       -9.228971e-01
        52         2        8.143294e-01
        53         2       -5.433762e-01
        54         2       -4.020145e-01
        55         2       -1.475506e-01
        56         2       -4.020149e-01
        57         2        9.484182e-01
        58         2       -9.590051e-01
        59         2        3.761950e-01
        60         2       -1.953750e+00
        61         2        1.796754e+00
        62         2        1.898239e-01
        63         2       -6.958579e-01
        64         2       -7.343167e-01
        65         2       -5.938832e-02
        66         2       -7.950856e-01
        67         2        7.084367e-01
        68         2        9.775565e-02
        69         2        2.527530e-01
        70         2        9.391842e-01
        71         2       -1.002832e+00
        72         2       -7.100836e-02
        73         2        6.620410e-01
        74         2       -5.076529e-01
        75         2        8.427421e-01
        76         2       -3.391923e-01
        77         2       -2.027746e+00
        78         2        5.352336e-01
        79         2        7.721386e-02
        80         2        1.615835e+00
        81         2        9.342347e-01
        82         2       -1.306967e+00
        83         2        8.047679e-01
        84         2        5.063650e-01
        85         2       -1.648635e+00
        86         2       -1.663999e+00
        87         2       -3.841339e-01
        88         2        9.772163e-01
        89         2        1.251507e+00
        90         2        4.842936e-01
        91         2       -1.174968e+00
        92         2        3.682373e-01
        93         2       -1.115181e+00
        94         2       -8.373708e-01
        95         2        1.158165e+00
        96         2       -1.993082e-01
        97         2        1.866682e+00
        98         2       -8.365188e-01
        99         2        3.122218e+00
       100         2        1.311980e+00
         1         3        2.296974e+00
         2         3        9.640895e-01
         3         3       -5.263937e-01
         4         3        8.996855e-01
         5         3       -1.482340e+00
         6         3       -6.032136e-01
         7         3       -5.516693e-02
         8         3        7.855656e-01
         9         3       -5.006030e-01
        10         3       -2.788169e-01
        11         3       -1.757572e+00
        12         3        5.123540e-01
        13         3        4.337196e-01
        14         3       -3.823371e-01
        15         3       -6.163604e-01
        16         3       -2.777557e-01
        17         3        1.771388e+00
        18         3        8.712224e-01
        19         3       -1.451918e+00
        20         3        4.202076e-01
        21         3        9.416107e-01
        22         3       -3.284934e-01
        23         3        2.071985e+00
        24         3        1.661531e+00
        25         3        5.288616e-01
        26         3       -3.614240e-01
        27         3        1.671974e+00
        28         3       -1.267181e+00
        29         3       -6.646480e-01
        30         3        1.510656e+00
        31         3        1.558981e-01
        32         3       -2.254132e-01
        33         3        2.093045e+00
        34         3        1.562430e+00
        35         3        9.196470e-01
        36         3        3.395428e-01
        37         3        7.565922e-01
        38         3        2.899991e-01
        39         3        7.153842e-01
        40         3        1.173148e-01
        41         3       -1.602474e+00
        42         3       -9.316079e-01
        43         3       -1.391170e+00
        44         3        1.384246e+00
        45         3       -4.058496e-01
        46         3       -1.323567e-01
        47         3       -8.016484e-01
        48         3        3.970276e-01
        49         3       -1.181808e+00
        50         3        1.094523e-01
        51         3       -9.411603e-01
        52         3       -5.134820e-01
        53         3       -1.338790e+00
        54         3       -6.605755e-01
        55         3       -3.755542e-03
        56         3        2.128332e-01
        57         3       -2.028647e-01
        58         3        2.642795e-02
        59         3        4.538261e-01
        60         3        2.612072e-01
        61         3        3.624266e-01
        62         3       -7.710239e-01
        63         3        9.079238e-01
        64         3        4.207635e-01
        65         3        1.393273e+00
        66         3       -1.169692e-01
        67         3        1.297467e+00
        68         3        5.772101e-01
        69         3        1.092981e-01
        70         3       -5.640124e-01
        71         3        2.146101e-01
        72         3        9.594905e-01
        73         3       -5.188174e-01
        74         3        1.526568e-03
        75         3        3.033420e-01
        76         3       -1.275515e+00
        77         3       -1.129170e+00
        78         3        7.532070e-01
        79         3        5.049338e-01
        80         3        6.996534e-01
        81         3        1.067909e+00
        82         3       -2.400925e-01
        83         3        1.755806e+00
        84         3       -9.226611e-01
        85         3       -2.938557e-01
        86         3       -4.368311e-01
        87         3        1.626595e+00
        88         3       -4.988226e-02
        89         3       -1.365973e+00
        90         3        1.657912e+00
        91         3        3.958288e-01
        92         3        1.650221e-01
        93         3        8.302923e-01
        94         3        8.618457e-01
        95         3       -3.990479e-02
        96         3       -3.888471e-01
        97         3       -1.086506e+00
        98         3       -6.837583e-01
        99         3       -5.129390e-01
       100         3        1.049620e+00
         1         4       -3.426486e-01
         2         4        2.134467e-02
         3         4        1.943641e+00
         4         4       -6.146399e-01
         5         4        3.066469e-01
         6         4       -5.597951e-01
         7         4       -1.223789e+00
         8         4       -6.538904e-01
         9         4        2.490304e-01
        10         4        3.053683e-01
        11         4        9.282759e-01
        12         4        2.578206e-01
        13         4        2.758360e-01
        14         4       -1.734317e+00
        15         4        8.403690e-01
        16         4       -2.285185e-01
        17         4        8.005623e-01
        18         4       -5.237888e-01
        19         4        4.326446e-02
        20         4       -1.709365e-01
        21         4       -5.393164e-01
        22         4        5.449560e-01
        23         4        5.066613e-01
        24         4       -9.815504e-01
        25         4       -1.477355e+00
        26         4       -6.456389e-01
        27         4       -6.504633e-01
        28         4        6.852701e-01
        29         4       -4.215528e-01
        30         4        8.508976e-01
        31         4       -1.011628e+00
        32         4       -7.894540e-01
        33         4        2.100599e+00
        34         4        1.638177e+00
        35         4       -7.839026e-01
        36         4        6.249697e-01
        37         4        1.418284e+00
        38         4       -7.623858e-01
        39         4        1.682060e-01
        40         4       -1.490524e+00
        41         4        1.302473e+00
        42         4       -1.840679e+00
        43         4        2.319112e-01
        44         4        7.795001e-01
        45         4       -7.076516e-01
        46         4       -1.030423e+00
        47         4       -1.363309e+00
        48         4       -1.801036e+00
        49         4        3.641540e-01
        50         4        1.380656e+00
        51         4        8.271411e-01
        52         4        4.672275e-01
        53         4        3.054313e-01
        54         4        6.901323e-02
        55         4        1.556461e-01
        56         4        1.134114e+00
        57         4       -9.846592e-01
        58         4       -2.540238e-01
        59         4       -1.439229e+00
        60         4       -8.096311e-01
        61         4        4.486654e-02
        62         4        4.309363e-01
        63         4       -1.909188e+00
        64         4        1.694467e+00
        65         4        6.145034e-01
        66         4       -1.609435e-01
        67         4       -1.874766e+00
        68         4        5.993766e-01
        69         4        1.055565e+00
        70         4       -2.460090e+00
        71         4        7.960159e-01
        72         4        4.950515e-02
        73         4        5.580078e-01
        74         4       -2.507355e+00
        75         4       -7.622704e-01
        76         4        1.324999e-01
        77         4        6.137224e-01
        78         4        5.129316e-01
        79         4       -1.388583e+00
        80         4        6.855057e-01
        81         4        1.982043e-01
        82         4        2.094594e+00
        83         4       -2.349244e-02
        84         4       -8.413939e-01
        85         4       -1.240468e+00
        86         4        7.630831e-02
        87         4        4.544653e-02
        88         4       -1.068765e+00
        89         4        1.737464e+00
        90         4        7.695159e-02
        91         4        3.966431e-01
        92         4        7.656166e-01
        93         4        3.262936e-01
        94         4        1.399014e+00
        95         4       -3.237454e-01
        96         4        2.993267e-01
        97         4        9.356672e-01
        98         4        1.094848e+00
        99         4       -1.427701e+00
       100         4       -2.289594e-01
         1         5        2.907175e-02
         2         5       -4.673484e-01
         3         5        3.995525e-02
         4         5       -1.067738e+00
         5         5        1.165144e+00
         6         5       -1.008005e+00
         7         5        1.647725e+00
         8         5       -3.114424e-01
         9         5       -8.272772e-01
        10         5        5.997931e-01
        11         5        2.236424e+00
        12         5        1.226644e+00
        13         5       -8.258000e-01
        14         5        1.071369e+00
        15         5        8.812837e-01
        16         5       -8.159000e-02
        17         5        7.994284e-01
        18         5       -1.556674e+00
        19         5       -1.466345e+00
        20         5       -4.765872e-01
        21         5        1.982709e+00
        22         5        5.153442e-01
        23         5        1.625175e+00
        24         5        9.896470e-01
        25         5        8.894808e-01
        26         5        7.656738e-01
        27         5       -4.390894e-01
        28         5       -2.033407e+00
        29         5       -8.139097e-01
        30         5       -1.826170e-01
        31         5        2.479953e+00
        32         5       -9.896630e-01
        33         5       -2.360759e+00
        34         5       -1.519907e-01
        35         5        7.481230e-01
        36         5        1.971740e+00
        37         5       -6.476252e-01
        38         5       -1.524539e+00
        39         5       -9.303217e-01
        40         5       -8.209487e-01
        41         5       -2.588861e+00
        42         5        3.650585e-01
        43         5       -1.524017e+00
        44         5       -1.655371e-01
        45         5       -7.731157e-03
        46         5       -1.320305e+00
        47         5       -8.364980e-01
        48         5        6.636770e-01
        49         5        1.733691e-01
        50         5        1.488059e+00
        51         5        2.679169e-01
        52         5       -1.174899e+00
        53         5       -1.173269e-01
        54         5       -2.747642e+00
        55         5       -6.605230e-01
        56         5       -4.406898e-01
        57         5        3.564896e-02
        58         5        3.097432e-01
        59         5        5.036028e-01
        60         5        1.712738e-01
        61         5       -1.658790e+00
        62         5       -5.407344e-01
        63         5       -1.050406e+00
        64         5        1.840178e-01
        65         5        5.814150e-01
        66         5       -1.757287e-01
        67         5       -7.120906e-01
        68         5        1.152714e+00
        69         5       -7.839552e-01
        70         5       -2.500427e-01
        71         5        3.128316e-02
        72         5       -1.493961e+00
        73         5       -2.945988e-01
        74         5        5.757643e-01
        75         5       -2.986932e-01
        76         5       -9.398158e-01
        77         5       -1.846234e+00
        78         5        8.436293e-01
        79         5       -7.228591e-01
        80         5       -5.936489e-01
        81         5       -3.881893e-01
        82         5        1.494297e+00
        83         5        6.345113e-01
        84         5        9.154603e-01
        85         5        1.310186e+00
        86         5        2.814732e-01
        87         5        8.652726e-01
        88         5        1.187099e+00
        89         5       -1.023797e+00
        90         5       -1.183071e+00
        91         5        6.440665e-01
        92         5        2.193236e-01
        93         5        5.980867e-02
        94         5        6.877646e-01
        95         5       -2.679796e+00
        96         5        7.807532e-01
        97         5        2.604457e-01
        98         5        5.450809e-03
        99         5        1.870578e+00
       100         5        3.044691e-01
;

param theta:=
    1        1.155828e+00
    2       -1.194957e+00
    3       -6.165578e-01
    4       -4.948312e-01
    5       -8.756524e-01
;
param X_true:=
    1       -6.467026e-01
    2        4.874852e-01
    3       -4.353317e-01
    4        1.666476e-01
    5        9.995122e-02
    6        2.135572e+00
    7       -1.249542e-01
    8        7.582812e-01
    9        1.643260e+00
   10        6.237805e-01
   11       -1.626296e+00
   12       -3.224397e+00
   13        1.265778e+00
   14        5.010128e-01
   15       -1.787786e+00
   16        2.145585e+00
   17       -1.748125e+00
   18       -1.078005e+00
   19        4.427556e+00
   20       -1.450650e+00
   21       -1.785077e+00
   22       -1.363315e+00
   23       -3.939114e+00
   24       -2.185002e+00
   25       -2.681026e-01
   26       -2.105486e+00
   27        6.015941e-01
   28        2.612469e+00
   29        2.561259e+00
   30        3.942587e-01
   31       -2.466906e+00
   32        1.292844e+00
   33       -1.437376e+00
   34        7.963075e-02
   35       -2.719273e+00
   36       -8.126831e-01
   37        1.354432e+00
   38        3.487012e-01
   39        6.597211e-01
   40        2.123750e+00
   41        2.399493e+00
   42        2.566309e+00
   43        2.455403e+00
   44       -3.043709e+00
   45       -3.328618e-01
   46        1.030540e+00
   47        7.569600e-01
   48       -1.651363e+00
   49        1.215685e+00
   50        1.223463e+00
   51       -4.169071e-01
   52       -7.089586e-01
   53        8.722648e-01
   54        5.646664e+00
   55        1.542487e+00
   56        1.806490e-01
   57        3.898296e-01
   58       -1.830504e+00
   59       -9.967842e-01
   60        3.275817e+00
   61       -8.450984e-01
   62       -4.585551e-01
   63        1.191156e+00
   64       -1.759597e+00
   65       -1.427838e+00
   66        1.192692e+00
   67        4.895741e-01
   68       -8.099558e-01
   69       -5.935634e-01
   70        1.624592e+00
   71        9.460720e-01
   72       -1.059285e+00
   73        3.764277e-01
   74        1.052378e+00
   75        1.356130e-01
   76        1.530763e+00
   77        3.017951e+00
   78       -3.159913e+00
   79        1.489174e+00
   80       -2.796383e+00
   81       -3.194248e+00
   82       -3.367581e-01
   83       -3.712179e+00
   84       -5.950415e-01
   85        1.831838e+00
   86        2.244583e+00
   87       -2.504242e+00
   88       -8.786769e-01
   89       -5.183632e-01
   90       -1.440337e+00
   91        9.006743e-01
   92       -5.750293e-01
   93        1.245151e+00
   94       -1.511180e+00
   95        7.407387e-01
   96       -1.558819e+00
   97       -2.857725e+00
   98        3.149904e-01
   99       -4.305348e+00
  100       -3.567397e-01
;
param X:=
    1        7.284505e-02
    2       -2.009772e+00
    3        2.827244e-01
    4        7.295062e-01
    5       -9.127821e-02
    6        3.703434e-02
    7        2.634041e-02
    8       -1.991000e+00
    9        1.643260e+00
   10        6.237805e-01
   11        1.452187e+00
   12       -3.224397e+00
   13        3.014417e-01
   14        5.010128e-01
   15       -1.020771e-01
   16        1.919315e+00
   17       -1.470912e+00
   18       -4.386599e-01
   19        4.427556e+00
   20        5.143179e-01
   21       -1.953553e+00
   22       -1.449237e-01
   23       -3.939114e+00
   24       -4.128718e-01
   25       -1.785872e+00
   26        9.539980e-01
   27        5.971163e-03
   28        2.612469e+00
   29        2.561259e+00
   30        3.942587e-01
   31       -1.098120e+00
   32       -6.477659e-01
   33        1.445141e+00
   34        3.653775e-01
   35        1.637192e+00
   36       -8.126831e-01
   37        1.354432e+00
   38       -2.765283e-01
   39        1.695906e+00
   40        5.182595e-01
   41       -4.170452e-01
   42        2.566309e+00
   43       -1.329203e+00
   44       -3.305459e-02
   45       -8.482850e-01
   46       -1.372432e-01
   47        7.569600e-01
   48       -1.342758e-01
   49       -1.787725e+00
   50        3.536583e-01
   51        8.394268e-02
   52       -7.089586e-01
   53       -5.623980e-01
   54        5.646664e+00
   55       -1.542842e+00
   56       -1.247176e-01
   57       -1.634959e+00
   58       -1.830504e+00
   59        5.091047e-01
   60        1.407848e+00
   61        3.987303e-01
   62       -4.585551e-01
   63       -8.456974e-01
   64        3.556018e-01
   65       -1.756935e+00
   66        1.192692e+00
   67       -2.180829e+00
   68        7.283842e-02
   69       -5.935634e-01
   70        1.624592e+00
   71        9.460720e-01
   72        2.066358e+00
   73        3.764277e-01
   74        2.303755e-02
   75        1.356130e-01
   76       -3.562066e-01
   77       -2.304211e-01
   78       -1.415484e+00
   79        1.211247e+00
   80       -2.796383e+00
   81       -2.541012e-01
   82       -1.536812e+00
   83       -8.204679e-01
   84       -1.770052e+00
   85       -1.339135e+00
   86        2.244583e+00
   87       -2.504242e+00
   88       -1.508892e+00
   89       -5.183632e-01
   90        7.454871e-01
   91       -2.585018e-01
   92        1.252570e+00
   93        1.468253e+00
   94       -4.810294e-01
   95        1.002611e-01
   96       -1.711648e-03
   97       -1.287566e+00
   98        3.872972e-01
   99       -4.305348e+00
  100        7.703228e-02
;
param outliervec:=
    1    1
    2    1
    3    1
    4    1
    5    1
    6    1
    7    1
    8    1
    9    0
   10    0
   11    1
   12    0
   13    1
   14    0
   15    1
   16    1
   17    1
   18    1
   19    0
   20    1
   21    1
   22    1
   23    0
   24    1
   25    1
   26    1
   27    1
   28    0
   29    0
   30    0
   31    1
   32    1
   33    1
   34    1
   35    1
   36    0
   37    0
   38    1
   39    1
   40    1
   41    1
   42    0
   43    1
   44    1
   45    1
   46    1
   47    0
   48    1
   49    1
   50    1
   51    1
   52    0
   53    1
   54    0
   55    1
   56    1
   57    1
   58    0
   59    1
   60    1
   61    1
   62    0
   63    1
   64    1
   65    1
   66    0
   67    1
   68    1
   69    0
   70    0
   71    0
   72    1
   73    0
   74    1
   75    0
   76    1
   77    1
   78    1
   79    1
   80    0
   81    1
   82    1
   83    1
   84    1
   85    1
   86    0
   87    0
   88    1
   89    0
   90    1
   91    1
   92    1
   93    1
   94    1
   95    1
   96    1
   97    1
   98    1
   99    0
  100    1
;